p cnf 101 37
-20 33 3 0
59 -4 -55 0
3 8 -24 0
-74 90 39 0
26 -75 -73 0
-92 -20 99 0
-101 -3 38 0
3 -1 -99 0
56 -37 -7 0
65 -62 4 0
-24 -37 43 0
-4 -63 -11 0
36 2 -22 0
-79 2 96 0
88 59 -34 0
-52 -99 18 0
-4 -18 -11 0
-20 27 35 0
1 -55 67 0
-7 26 -4 0
72 6 -1 0
10 7 40 0
-10 -2 -40 0
5 84 14 0
6 2 51 0
-14 -2 21 0
-39 84 31 0
96 56 35 0
-11 -2 -48 0
-1 -15 -11 0
36 4 7 0
4 -2 9 0
19 20 -1 0
-50 -6 55 0
-22 -9 -55 0
66 -54 -7 0
58 -4 85 0
